
  32    4
  10   10   10   10

   0   0   0   0   0   2 2 3 
   2   1   1   0   1   5 8 7 6 5 4 
   9   3   0   1   5   5 8 7 6 5 4 
  10   0   3   3   5   2 10 9 
   3   3   7   5   0   2 10 9 
  10   4   0   6   3   2 10 9 
   3   0   2   5   5   2 10 9 
   8   5   6   6   0   1 9 
  10   6   0   3   3   2 13 11 
   6   4   4   3   0   2 13 11 
   5   3   3   2   0   1 12 
   3   5   3   0   4   2 15 14 
   5   2   2   0   7   2 15 14 
   5   0   5   6   4   2 17 16 
   9   4   0   2   1   1 16 
   7   2   1   0   7   1 18 
   9   5   0   3   3   1 18 
   6   4   6   0   2   1 19 
   1   2   0   4   3   2 21 20 
   4   3   4   0   4   2 23 22 
   9   9   0   2   6   2 23 22 
   5   4   5   6   0   2 25 24 
   2   5   0   6   3   2 26 25 
   2   0   3   7   8   2 27 26 
   3   6   4   0   4   2 30 27 
   2   2   4   5   0   3 30 29 28 
   5   6   0   4   4   2 29 28 
   7   0   5   2   2   1 31 
   2   0   4   4   3   1 31 
   9   7   3   0   5   1 31 
   9   1   9   3   0   1 32
   0   0   0   0   0   0 
